82
0 76 31 81 65 63 1 48 47 64 
6 34 66 2 60 46 15 7 33 67 
18 26 69 53 72 74 25 11 32 38 
17 24 61 22 9 59 4 30 20 12 
62 13 80 39 21 14 41 57 68 19 
28 40 58 29 45 16 37 10 23 78 
43 71 3 56 50 49 8 5 75 51 
79 70 44 42 77 54 35 36 52 55 
73 27 
